c 1 NFa_1
c 2 NFa_2
c 3 NFa_3
c 4 NFb_1
c 5 NFb_2
c 6 NFb_3
c 7 NFc_1
c 8 NFc_2
c 9 NFc_3
c 10 NFd_1
c 11 NFd_2
c 12 NFd_3
c 13 NFe_1
c 14 NFe_2
c 15 NFe_3
c 16 NFf_1
c 17 NFf_2
c 18 NFf_3
c 19 Tseitin_Variable_1
c 20 Tseitin_Variable_2
c 21 Tseitin_Variable_3
c 22 Tseitin_Variable_4
c 23 Tseitin_Variable_5
c 24 Tseitin_Variable_6
c 25 Tseitin_Variable_7
c 26 Tseitin_Variable_8
c 27 Tseitin_Variable_9
c 28 Tseitin_Variable_10
c 29 Tseitin_Variable_11
c 30 Tseitin_Variable_12
c 31 Tseitin_Variable_13
c 32 Tseitin_Variable_14
c 33 Tseitin_Variable_15
c 34 Tseitin_Variable_16
c 35 Tseitin_Variable_17
c 36 Tseitin_Variable_18
c 37 Tseitin_Variable_19
c 38 NFa_1
c 39 NFa_2
c 40 NFa_3
c 41 NFb_1
c 42 NFb_2
c 43 NFb_3
c 44 NFc_1
c 45 NFc_2
c 46 NFc_3
c 47 NFd_1
c 48 NFd_2
c 49 NFd_3
c 50 NFe_1
c 51 NFe_2
c 52 NFe_3
c 53 NFf_1
c 54 NFf_2
c 55 NFf_3
c 56 Tseitin_Variable_1
c 57 Tseitin_Variable_2
c 58 Tseitin_Variable_3
c 59 Tseitin_Variable_4
c 60 Tseitin_Variable_5
c 61 Tseitin_Variable_6
c 62 Tseitin_Variable_7
c 63 Tseitin_Variable_8
c 64 Tseitin_Variable_9
c 65 Tseitin_Variable_10
c 66 Tseitin_Variable_11
c 67 Tseitin_Variable_12
c 68 Tseitin_Variable_13
c 69 Tseitin_Variable_14
c 70 Tseitin_Variable_15
c 71 Tseitin_Variable_16
c 72 Tseitin_Variable_17
c 73 Tseitin_Variable_18
c 74 Tseitin_Variable_19
p cnf 74 194
2 -3 0
3 -2 0
5 -6 0
6 -5 0
8 -9 0
21 -10 0
21 -11 0
12 21 0
10 11 -12 -21 0
21 0
4 -7 -22 0
7 -4 -22 0
22 -4 -7 0
4 7 22 0
10 23 0
1 22 23 0
1 -10 -23 0
2 24 0
4 25 0
7 25 0
5 8 25 -26 0
5 -8 -25 -26 0
26 -5 -8 -25 0
5 -8 25 26 0
5 8 -25 26 0
1 27 0
1 26 -27 0
24 -27 -28 0
24 27 28 0
23 -28 -29 0
11 28 29 0
11 -23 29 0
24 27 -30 0
2 31 0
5 8 -32 0
5 -25 -32 0
8 -25 -32 0
32 -5 -8 0
6 -9 32 -33 0
6 9 -32 -33 0
6 9 32 33 0
6 -9 -32 33 0
1 34 0
1 33 -34 0
31 -34 -35 0
31 34 35 0
3 36 0
30 -35 36 -37 0
30 35 -36 -37 0
30 -35 -36 37 0
30 35 36 37 0
12 -37 0
12 29 0
29 -37 0
13 0
14 0
16 0
17 0
19 0
1 0
39 -40 0
40 -39 0
42 -43 0
43 -42 0
45 -46 0
58 -47 0
58 -48 0
49 58 0
47 48 -49 -58 0
58 0
-52 0
-55 0
41 -44 -59 0
44 -41 -59 0
59 -41 -44 0
41 44 59 0
47 60 0
38 59 60 0
38 -47 -60 0
-47 -59 -60 0
39 61 0
-59 61 0
-39 59 -61 0
41 62 0
44 62 0
-41 -44 -62 0
42 45 62 -63 0
42 -45 -62 -63 0
-42 45 -62 -63 0
-42 -45 62 -63 0
63 -42 -45 -62 0
-42 45 62 63 0
42 -45 62 63 0
42 45 -62 63 0
38 64 0
-63 64 0
38 63 -64 0
-61 64 -65 0
61 -64 -65 0
-61 -64 65 0
61 64 65 0
-48 -65 -66 0
-48 60 -66 0
60 -65 -66 0
48 65 66 0
48 -60 66 0
-60 65 66 0
-64 67 0
-61 67 0
61 64 -67 0
39 68 0
-63 68 0
-39 63 -68 0
42 45 -69 0
42 -62 -69 0
45 -62 -69 0
69 -42 -45 0
-42 62 69 0
-45 62 69 0
43 -46 69 -70 0
43 46 -69 -70 0
-43 -46 -69 -70 0
-43 46 69 -70 0
-43 46 -69 70 0
-43 -46 69 70 0
43 46 69 70 0
43 -46 -69 70 0
38 71 0
-70 71 0
38 70 -71 0
-68 71 -72 0
68 -71 -72 0
-68 -71 72 0
68 71 72 0
40 73 0
-59 73 0
-40 59 -73 0
-67 72 73 -74 0
67 -72 73 -74 0
67 72 -73 -74 0
-67 -72 -73 -74 0
67 -72 -73 74 0
-67 72 -73 74 0
-67 -72 73 74 0
67 72 73 74 0
49 -74 0
49 66 0
66 -74 0
-39 0
50 0
51 0
53 0
-57 0
54 0
56 0
-40 0
38 0